Route #1: 70 76 50 45 22 4 32 58
Route #2: 49 73 36 67 66 53 42
Route #3: 38 72 54 9 55 41 25 46
Route #4: 64 33 15 47 56 69 65 35 26 19 57 75 20 29
Route #5: 51 77 3 39 60 74 13
Route #6: 12 44 23 5 59 27 31 17
Route #7: 34 2 37 8 68 43 16 61 78 30
Route #8: 62 6 24 11 63 10
Route #9: 14 48 18 79 28 52 71
Route #10: 1 7 21 40
Cost 1766
Time 0.32755
